
Gurobi 9.1.2 (linux64) logging started Wed Oct 13 03:00:00 2021

Changed value of parameter LogFile to /home/zongzan/dist_dnn_training/MixedMemoryOpt/data/budget_sweep/p32xlarge_VGG16_256_None/ilp_log/ilp_mixed_22893139648.log
   Prev:   Default: 
Changed value of parameter Threads to 32
   Prev: 0  Min: 0  Max: 1024  Default: 0
Changed value of parameter TimeLimit to 3600.0
   Prev: inf  Min: 0.0  Max: inf  Default: inf
Changed value of parameter OptimalityTol to 0.0001
   Prev: 1e-06  Min: 1e-09  Max: 0.01  Default: 1e-06
Parameter IntFeasTol unchanged
   Value: 1e-05  Min: 1e-09  Max: 0.1  Default: 1e-05
Changed value of parameter Presolve to 2
   Prev: -1  Min: -1  Max: 2  Default: -1
Changed value of parameter StartNodeLimit to 10000000
   Prev: -1  Min: -3  Max: 2000000000  Default: -1
Changed value of parameter TimeLimit to 300.0
   Prev: 3600.0  Min: 0.0  Max: inf  Default: inf
Gurobi Optimizer version 9.1.2 build v9.1.2rc0 (linux64)
Thread count: 28 physical cores, 56 logical processors, using up to 32 threads
Optimize a model with 61102 rows, 14040 columns and 576953 nonzeros
Model fingerprint: 0xa80bdb26
Variable types: 2025 continuous, 12015 integer (12015 binary)
Coefficient statistics:
  Matrix range     [1e+00, 5e+07]
  Objective range  [4e+00, 2e+02]
  Bounds range     [1e+00, 4e+08]
  RHS range        [1e+00, 4e+08]
Presolve removed 54198 rows and 9136 columns
Presolve time: 2.10s
Presolved: 6904 rows, 4904 columns, 37431 nonzeros
Variable types: 0 continuous, 4904 integer (3909 binary)
Found heuristic solution: objective 16532.016538
Found heuristic solution: objective 8214.2522868
Found heuristic solution: objective 3788.5763924
Presolve removed 78 rows and 64 columns
Presolved: 6826 rows, 4840 columns, 37086 nonzeros


Root relaxation: objective 3.096075e+03, 2968 iterations, 0.23 seconds

    Nodes    |    Current Node    |     Objective Bounds      |     Work
 Expl Unexpl |  Obj  Depth IntInf | Incumbent    BestBd   Gap | It/Node Time

     0     0 3096.07494    0    1 3788.57639 3096.07494  18.3%     -    2s
H    0     0                    3726.8154561 3096.07494  16.9%     -    2s
H    0     0                    3096.0749363 3096.07494  0.00%     -    2s

Explored 1 nodes (6558 simplex iterations) in 2.89 seconds
Thread count was 32 (of 56 available processors)

Solution count 5: 3096.07 3726.82 3788.58 ... 16532

Optimal solution found (tolerance 1.00e-04)
Best objective 3.096074936330e+03, best bound 3.096074936330e+03, gap 0.0000%
Changed value of parameter TimeLimit to 3600.0
   Prev: 300.0  Min: 0.0  Max: inf  Default: inf


Restarting solve


Gurobi Optimizer version 9.1.2 build v9.1.2rc0 (linux64)
Thread count: 28 physical cores, 56 logical processors, using up to 32 threads
Optimize a model with 59836 rows, 14040 columns and 575687 nonzeros
Model fingerprint: 0x94d31538
Variable types: 2025 continuous, 12015 integer (12015 binary)
Coefficient statistics:
  Matrix range     [1e+00, 5e+07]
  Objective range  [4e+00, 2e+02]
  Bounds range     [1e+00, 4e+08]
  RHS range        [1e+00, 4e+08]

MIP start from previous solve produced solution with objective 3096.07 (0.11s)
Loaded MIP start from previous solve with objective 3096.07

Presolve removed 58593 rows and 12559 columns
Presolve time: 2.80s
Presolved: 1243 rows, 1481 columns, 15554 nonzeros
Variable types: 0 continuous, 1481 integer (1480 binary)

Explored 0 nodes (0 simplex iterations) in 2.93 seconds
Thread count was 32 (of 56 available processors)

Solution count 1: 3096.07 

Optimal solution found (tolerance 1.00e-04)
Best objective 3.096074936330e+03, best bound 3.096074936330e+03, gap 0.0000%
